 vasp.5.4.4.18Apr17-6-g9f103f2a35 (build Apr 18 2019 12:40:38) complex

 executed on             LinuxIFC date 2022.01.22  09:20:56

 INCAR:
 POTCAR:    PAW_PBE Al 04Jan2001
 POTCAR:    PAW_PBE O 08Apr2002
 POTCAR:    PAW_PBE H 15Jun2001

 POTCAR:    PAW_PBE Al 04Jan2001
   VRHFIN =Al: s2p1

   TITEL  = PAW_PBE Al 04Jan2001
   POMASS =   26.981; ZVAL   =    3.000    mass and valenz
   ENMAX  =  240.300; ENMIN  =  180.225 eV

 POTCAR:    PAW_PBE O 08Apr2002
   VRHFIN =O: s2p4

   TITEL  = PAW_PBE O 08Apr2002
   POMASS =   16.000; ZVAL   =    6.000    mass and valenz
   ENMAX  =  400.000; ENMIN  =  300.000 eV

 POTCAR:    PAW_PBE H 15Jun2001
   VRHFIN =H: ultrasoft test

   TITEL  = PAW_PBE H 15Jun2001
   POMASS =    1.000; ZVAL   =    1.000    mass and valenz
   ENMAX  =  250.000; ENMIN  =  200.000 eV

  PAW_PBE Al 04Jan2001                  :
  PAW_PBE O 08Apr2002                   :
  PAW_PBE H 15Jun2001                   :

 POSCAR: Al4 O6
  positions in direct lattice
 exchange correlation table for  LEXCH =        8
   RHO(1)=    0.500       N(1)  =     2000
   RHO(2)=  100.500       N(2)  =     4000

 VTST: version 3.2, (02/03/18)

 CHAIN: initializing optimizer

 OPT: Using VASP QUASI-newton optimizer
 CHAIN: Read ICHAIN            0

 POSCAR: Al4 O6
  positions in direct lattice

 ion  position               nearest neighbor table
   1  0.927  0.928  0.921-  62 1.85  52 1.88  78 1.93  39 1.93  68 2.01  47 2.07  24 2.68  32 2.77
                             3 2.83  14 2.85  22 3.18  23 3.29  20 3.30
   2  0.917  0.932  0.432-  61 1.82  40 1.85  51 1.87  77 1.98  48 2.02  67 2.06  23 2.64   6 2.73
                            31 2.82   4 2.83  24 3.21  13 3.28  19 3.32
   3  0.081  0.574  0.065-  76 1.74  47 1.90  52 1.94  33 1.97  65 1.98  63 2.06  11 2.65  26 2.74
                             1 2.83  29 2.95  12 3.15   9 3.30
   4  0.072  0.577  0.572-  81 1.78  75 1.86  48 1.87  66 1.92  34 1.92  64 1.96  51 2.04  12 2.73
                            25 2.82   2 2.83  30 2.84  11 3.26  10 3.26  16 3.28
   5  0.682  0.176  0.173-  45 1.82  77 1.88  54 1.90  69 1.91  57 1.98  39 2.01  14 2.67  22 2.82
                            17 2.84  23 2.87   7 3.22  31 3.25   6 3.32
   6  0.577  0.082  0.578-  53 1.86  77 1.86  40 1.89  42 1.91  58 1.92  72 1.96  21 2.68   2 2.73
                            28 2.77  25 2.81  10 3.25  16 3.30   5 3.32
   7  0.570  0.572  0.071-  43 1.83  69 1.85  37 1.91  80 1.92  59 2.00  56 2.07  15 2.68  28 2.80
                            25 2.81  30 2.82  11 3.21   5 3.22  16 3.31
   8  0.577  0.562  0.571-  79 1.80  70 1.89  38 1.92  44 1.98  60 2.02  55 2.06  16 2.72  29 2.84
                            26 2.89  27 2.90  21 3.12  15 3.22  12 3.31  13 3.36
   9  0.175  0.170  0.182-  73 1.79  65 1.87  41 1.90  50 1.94  61 1.99  35 2.11  31 2.64  19 2.70
                            13 2.82  18 2.88  32 3.25  14 3.25   3 3.30
  10  0.181  0.175  0.680-  74 1.80  42 1.82  66 1.84  62 1.97  36 2.00  49 2.02  32 2.68  22 2.76
                            20 2.81  17 2.87   6 3.25  31 3.25   4 3.26
  11  0.177  0.672  0.174-  75 1.85  67 1.87  43 1.91  63 1.94  33 2.01  52 2.03   3 2.65  23 2.69
                            17 2.75  20 2.87   7 3.21  31 3.23   4 3.26
  12  0.168  0.687  0.679-  68 1.80  44 1.89  76 1.90  51 2.05  64 2.06  34 2.08   4 2.73  24 2.77
                            18 2.81  19 2.87   3 3.15  32 3.19   8 3.31
  13  0.825  0.331  0.326-  79 1.90  65 1.91  53 1.94  61 1.96  37 2.00  46 2.07  29 2.70  15 2.80
                             9 2.82  21 2.87   2 3.28  30 3.29  25 3.29   8 3.36
  14  0.571  0.077  0.077-  71 1.85  41 1.87  54 1.91  39 1.94  57 1.95  78 1.96   5 2.67  26 2.73
                            27 2.79   1 2.85  21 3.19   9 3.25  15 3.29
  15  0.667  0.678  0.176-  71 1.88  79 1.89  47 1.91  37 1.93  56 1.94  59 1.94   7 2.68  19 2.77
                            13 2.80  24 2.81   8 3.22  14 3.29
  16  0.672  0.685  0.665-  72 1.82  48 1.86  55 1.86  80 1.87  81 1.92  38 2.02  60 2.10   8 2.72
                            20 2.73  23 2.78  22 2.97   4 3.28   6 3.30   7 3.31
  17  0.329  0.331  0.321-  33 1.84  57 1.87  49 1.92  69 1.92  75 1.95  42 2.04  25 2.60  11 2.75
                             5 2.84  10 2.87  26 3.21  29 3.22  27 3.30
  18  0.316  0.336  0.823-  34 1.86  70 1.90  50 1.91  58 1.95  76 1.97  41 1.98  26 2.61  12 2.81
                             9 2.88  21 2.93  30 3.22  25 3.28
  19  0.323  0.834  0.320-  35 1.87  51 1.88  44 1.92  59 1.95  73 2.02  71 2.03  27 2.67   9 2.70
                            15 2.77  12 2.87  25 3.30  28 3.31   2 3.32
  20  0.331  0.824  0.816-  36 1.85  60 1.85  52 1.92  72 1.94  43 1.96  74 1.97  28 2.61  16 2.73
                            10 2.81  11 2.87  27 3.18   1 3.30  26 3.31
  21  0.683  0.176  0.685-  78 1.75  70 1.81  46 1.86  53 2.05  40 2.06  58 2.11   6 2.68  24 2.81
                            13 2.87  18 2.93   8 3.12  14 3.19  32 3.22
  22  0.835  0.315  0.820-  62 1.84  45 1.93  38 1.95  66 1.95  54 2.01  80 2.04  30 2.68  10 2.76
                             5 2.82  16 2.97  29 3.14   1 3.18  26 3.36
  23  0.842  0.818  0.320-  63 1.84  67 1.91  48 1.91  39 1.93  55 1.95  77 2.11   2 2.64  11 2.69
                            16 2.78   5 2.87  29 3.24   1 3.29  27 3.35
  24  0.821  0.822  0.827-  56 1.82  40 1.85  64 1.89  68 1.94  47 1.95  78 2.02   1 2.68  12 2.77
                            15 2.81  21 2.81   2 3.21  30 3.23  28 3.24
  25  0.424  0.430  0.423-  59 1.83  34 1.92  53 1.94  69 1.94  42 1.98  75 2.01  17 2.60   7 2.81
                             6 2.81   4 2.82  18 3.28  13 3.29  19 3.30
  26  0.422  0.418  0.933-  33 1.85  54 1.90  60 1.90  41 1.97  76 1.99  70 2.04  18 2.61  14 2.73
                             3 2.74   8 2.89  17 3.21  20 3.31  22 3.36
  27  0.430  0.926  0.426-  36 1.88  55 1.92  57 1.93  71 1.97  44 2.00  73 2.05  19 2.67  14 2.79
                            32 2.82   8 2.90  20 3.18  17 3.30  23 3.35
  28  0.427  0.923  0.919-  35 1.84  58 1.88  56 1.89  72 1.94  43 1.99  74 1.99  20 2.61   6 2.77
                            31 2.80   7 2.80  24 3.24  19 3.31
  29  0.934  0.421  0.435-  49 1.82  38 1.83  63 1.86  46 1.98  65 2.02  79 2.15  13 2.70  32 2.76
                             8 2.84   3 2.95  22 3.14  17 3.22  23 3.24
  30  0.924  0.427  0.926-  64 1.83  37 1.90  50 1.92  66 1.99  45 2.02  80 2.07  22 2.68   7 2.82
                             4 2.84  31 2.91  18 3.22  24 3.23  13 3.29
  31  0.080  0.065  0.080-  67 1.84  35 1.91  74 1.92  45 1.97  61 1.99  50 2.01   9 2.64  28 2.80
                             2 2.82  30 2.91  11 3.23   5 3.25  10 3.25
  32  0.078  0.075  0.577-  46 1.82  73 1.86  68 1.90  49 1.94  36 1.94  62 1.95  10 2.68  29 2.76
                             1 2.77  27 2.82  12 3.19  21 3.22   9 3.25
  33  0.276  0.463  0.130-  17 1.84  26 1.85   3 1.97  11 2.01
  34  0.266  0.474  0.628-  18 1.86   4 1.92  25 1.92  12 2.08
  35  0.284  0.959  0.118-  28 1.84  19 1.87  31 1.91   9 2.11
  36  0.279  0.975  0.624-  20 1.85  27 1.88  32 1.94  10 2.00
  37  0.763  0.484  0.121-  30 1.90   7 1.91  15 1.93  13 2.00
  38  0.770  0.472  0.623-  29 1.83   8 1.92  22 1.95  16 2.02
  39  0.771  0.969  0.129-   1 1.93  23 1.93  14 1.94   5 2.01
  40  0.770  0.970  0.633-   2 1.85  24 1.85   6 1.89  21 2.06
  41  0.376  0.215  0.025-  14 1.87   9 1.90  26 1.97  18 1.98
  42  0.372  0.226  0.536-  10 1.82   6 1.91  25 1.98  17 2.04
  43  0.380  0.716  0.019-   7 1.83  11 1.91  20 1.96  28 1.99
  44  0.370  0.730  0.520-  12 1.89  19 1.92   8 1.98  27 2.00
  45  0.875  0.220  0.023-   5 1.82  22 1.93  31 1.97  30 2.02
  46  0.882  0.218  0.537-  32 1.82  21 1.86  29 1.98  13 2.07
  47  0.874  0.715  0.026-   3 1.90  15 1.91  24 1.95   1 2.07
  48  0.874  0.722  0.526-  81 1.30  16 1.86   4 1.87  23 1.91   2 2.02
  49  0.131  0.273  0.473-  29 1.82  17 1.92  32 1.94  10 2.02
  50  0.122  0.275  0.984-  18 1.91  30 1.92   9 1.94  31 2.01
  51  0.123  0.788  0.465-   2 1.87  19 1.88   4 2.04  12 2.05
  52  0.128  0.776  0.965-   1 1.88  20 1.92   3 1.94  11 2.03
  53  0.624  0.274  0.481-   6 1.86  25 1.94  13 1.94  21 2.05
  54  0.620  0.272  0.987-  26 1.90   5 1.90  14 1.91  22 2.01
  55  0.635  0.770  0.470-  16 1.86  27 1.92  23 1.95   8 2.06
  56  0.625  0.783  0.972-  24 1.82  28 1.89  15 1.94   7 2.07
  57  0.475  0.133  0.272-  17 1.87  27 1.93  14 1.95   5 1.98
  58  0.467  0.126  0.781-  28 1.88   6 1.92  18 1.95  21 2.11
  59  0.470  0.625  0.275-  25 1.83  15 1.94  19 1.95   7 2.00
  60  0.459  0.624  0.776-  20 1.85  26 1.90   8 2.02  16 2.10
  61  0.971  0.120  0.284-   2 1.82  13 1.96   9 1.99  31 1.99
  62  0.984  0.117  0.780-  22 1.84   1 1.85  32 1.95  10 1.97
  63  0.979  0.619  0.280-  23 1.84  29 1.86  11 1.94   3 2.06
  64  0.966  0.622  0.777-  30 1.83  24 1.89   4 1.96  12 2.06
  65  0.028  0.367  0.231-   9 1.87  13 1.91   3 1.98  29 2.02
  66  0.031  0.371  0.723-  10 1.84   4 1.92  22 1.95  30 1.99
  67  0.036  0.869  0.225-  31 1.84  11 1.87  23 1.91   2 2.06
  68  0.016  0.882  0.715-  12 1.80  32 1.90  24 1.94   1 2.01
  69  0.528  0.376  0.226-   7 1.85   5 1.91  17 1.92  25 1.94
  70  0.521  0.368  0.724-  21 1.81   8 1.89  18 1.90  26 2.04
  71  0.535  0.877  0.222-  14 1.85  15 1.88  27 1.97  19 2.03
  72  0.529  0.873  0.718-  16 1.82  20 1.94  28 1.94   6 1.96
  73  0.218  0.041  0.373-   9 1.79  32 1.86  19 2.02  27 2.05
  74  0.220  0.024  0.873-  10 1.80  31 1.92  20 1.97  28 1.99
  75  0.216  0.532  0.375-  11 1.85   4 1.86  17 1.95  25 2.01
  76  0.217  0.534  0.879-   3 1.74  12 1.90  18 1.97  26 1.99
  77  0.714  0.034  0.381-   6 1.86   5 1.88   2 1.98  23 2.11
  78  0.730  0.032  0.868-  21 1.75   1 1.93  14 1.96  24 2.02
  79  0.717  0.528  0.375-   8 1.80  15 1.89  13 1.90  29 2.15
  80  0.718  0.534  0.863-  16 1.87   7 1.92  22 2.04  30 2.07
  81  0.909  0.563  0.573-  48 1.30   4 1.78  16 1.92

  LATTYP: Found a trigonal (rhomboedric) cell.
 ALAT       =    10.3559103012
 COS(alpha) =     0.5694285754

  Lattice vectors:

 A1 = (  10.3559103012,   0.0000000000,   0.0000000000)
 A2 = (   5.8969512495,   8.5129809190,   0.0000000000)
 A3 = (   5.8969512495,   3.0887258413,   7.9328819987)

Analysis of symmetry for initial positions (statically):
 Subroutine PRICEL returns:
 Original cell was already a primitive cell.

 Routine SETGRP: Setting up the symmetry group for a
 trigonal (rhombohedral) supercell.

 Subroutine GETGRP returns: Found  1 space group operations
 (whereof  1 operations were pure point group operations)
 out of a pool of 12 trial point group operations.

The static configuration has the point symmetry C_1 .

Analysis of symmetry for dynamics (positions and initial velocities):
 Subroutine PRICEL returns:
 Original cell was already a primitive cell.

[...]

The dynamic configuration has the point symmetry C_1 .

Analysis of structural, dynamic, and magnetic symmetry:
 Subroutine PRICEL returns:
 Original cell was already a primitive cell.

 Routine SETGRP: Setting up the symmetry group for a
 trigonal (rhombohedral) supercell.

 Subroutine GETGRP returns: Found  1 space group operations
[...]
   0.141E+02 -.882E+01 -.247E+02   -.145E+02 0.891E+01 0.254E+02   0.429E+00 -.963E-01 -.710E+00   -.233E-01 0.314E-02 -.891E-02
   0.137E+02 -.973E+01 -.253E+02   -.140E+02 0.998E+01 0.260E+02   0.302E+00 -.255E+00 -.609E+00   0.103E-01 0.137E-02 -.175E-01
   0.127E+02 -.103E+02 -.246E+02   -.131E+02 0.105E+02 0.253E+02   0.398E+00 -.210E+00 -.717E+00   0.254E-02 -.688E-02 -.825E-02
   0.146E+02 -.993E+01 -.252E+02   -.152E+02 0.997E+01 0.257E+02   0.528E+00 -.509E-01 -.537E+00   0.450E-02 0.707E-02 0.197E-01
[...]
   -.135E+02 0.959E+01 0.247E+02   0.138E+02 -.994E+01 -.252E+02   -.292E+00 0.342E+00 0.443E+00   -.118E-02 -.393E-02 -.673E-02
   -.147E+02 0.994E+01 0.252E+02   0.153E+02 -.998E+01 -.258E+02   -.542E+00 0.386E-01 0.581E+00   -.854E-02 0.411E-02 -.480E-02
   -.127E+02 0.104E+02 0.246E+02   0.132E+02 -.106E+02 -.252E+02   -.467E+00 0.221E+00 0.677E+00   0.775E-02 -.799E-03 -.113E-01
   -.136E+02 0.974E+01 0.254E+02   0.139E+02 -.996E+01 -.260E+02   -.290E+00 0.230E+00 0.605E+00   -.374E-02 -.640E-02 -.708E-02
   -.143E+02 0.892E+01 0.248E+02   0.147E+02 -.905E+01 -.255E+02   -.416E+00 0.134E+00 0.702E+00   0.431E-02 0.697E-03 0.814E-02
   0.148E+02 -.255E+02 0.754E+00   -.151E+02 0.263E+02 -.702E+00   0.338E+00 -.765E+00 -.442E-01   -.987E-02 -.391E-02 -.874E-02
   0.135E+02 -.268E+02 -.746E+00   -.138E+02 0.275E+02 0.889E+00   0.306E+00 -.768E+00 -.153E+00   0.101E-02 0.380E-02 0.137E-01
   0.102E+02 -.273E+02 0.267E+01   -.991E+01 0.287E+02 -.284E+01   -.222E+00 -.136E+01 0.157E+00   -.250E-01 0.161E-02 0.798E-02
   0.141E+02 -.263E+02 -.317E-01   -.144E+02 0.268E+02 -.113E+00   0.287E+00 -.560E+00 0.157E+00   0.256E-01 0.414E-02 -.840E-02
   0.137E+02 -.274E+02 0.530E-01   -.138E+02 0.282E+02 0.115E+00   0.129E+00 -.727E+00 -.172E+00   -.123E-01 -.171E-01 0.206E-02
   0.146E+02 -.267E+02 -.605E-01   -.150E+02 0.273E+02 0.708E-01   0.385E+00 -.605E+00 0.838E-02   -.149E-02 -.384E-02 -.178E-01
   0.147E+02 -.266E+02 0.299E+00   -.151E+02 0.274E+02 -.309E+00   0.399E+00 -.801E+00 0.592E-02   0.221E-01 0.703E-02 0.654E-02
   0.134E+02 -.272E+02 0.950E-01   -.136E+02 0.278E+02 -.170E+00   0.160E+00 -.667E+00 0.626E-01   0.527E-02 0.820E-02 0.490E-02
   -.309E-01 -.441E+00 -.169E+00   0.966E-01 0.488E+00 0.198E+00   -.472E-01 -.571E-02 -.992E-02   -.282E-02 0.362E-03 0.164E-03
   -.792E-01 -.690E-01 -.611E-01   0.132E-13 -.142E-13 -.576E-13   0.260E-01 0.822E-01 0.119E+00   0.557E-01 -.131E-01 -.573E-01

 POSITION                                       TOTAL-FORCE (eV/Angst)
     20.50636     10.75440      7.35179        -0.003087     -0.001479     -0.000224
     17.56119      9.21534      3.39009         0.002190      0.005597      0.002057
      4.57376      5.12356      0.58572        -0.005087     -0.000853      0.003488
      7.52662      6.66507      4.56023         0.000439      0.000972     -0.001297
      9.07325      2.05149      1.40578         0.001724      0.001728     -0.005319
      9.75744      2.41182      4.56072        -0.001313      0.003180      0.003440
      9.76033      5.12321      0.59397         0.001010     -0.005673     -0.005716
     12.69713      6.66628      4.56454        -0.002409     -0.002229     -0.002846
      3.89718      2.05128      1.40519        -0.000989      0.002090      0.002574
      6.84466      3.58120      5.37571         0.002035     -0.002807     -0.003379
      6.84315      6.31160      1.39003         0.001116     -0.004427      0.000969
      9.78879      7.85066      5.36931        -0.001890     -0.000598      0.000070
     12.34963      3.76668      2.57797        -0.001976      0.004801     -0.002447
      6.80957      0.86647      0.59407         0.004545     -0.001520     -0.000602
     12.02472      6.30921      1.40412        -0.006923     -0.001797     -0.000575
     14.95987      7.85931      5.38007        -0.002576      0.001407     -0.002256
      7.17823      3.75821      2.56893         0.003303      0.000108      0.001868
     10.11576      5.30990      6.54357        -0.003436     -0.002995      0.000606
     10.11630      8.02065      2.57535        -0.000024     -0.000297      0.004407
     13.06560      9.56766      6.54439        -0.001137     -0.003547     -0.007009
     12.02175      3.59733      5.37176         0.002267     -0.000650      0.004854
     15.29429      5.30885      6.55925         0.002420     -0.004860     -0.000718
     15.29136      8.03631      2.57378         0.001222      0.000819     -0.002915
     18.24220      9.56695      6.54207        -0.003287      0.001645      0.004091
      9.44130      4.95190      3.38481        -0.002176      0.004903     -0.001139
     12.37869      6.49736      7.35580         0.001763     -0.003230      0.001154
     12.38018      9.20612      3.38816         0.001149     -0.001878      0.000128
     15.32965     10.75283      7.35417        -0.002320     -0.003374     -0.002760
     14.60916      4.95266      3.38821         0.006966     -0.002371     -0.001789
     17.56518      6.49619      7.36219        -0.002582     -0.001904      0.000185
      1.63264      0.86550      0.59655        -0.003386      0.000775     -0.003470
      4.57563      2.40052      4.55733         0.004537     -0.000412      0.003058
      6.39318      4.41425      1.00038        -0.001713     -0.002930     -0.001232
      9.34156      5.95369      4.96384        -0.002038      0.002133      0.003527
      9.34321      8.66484      0.99903        -0.004542     -0.000585      0.002819
     12.29270     10.20300      4.96939         0.002260     -0.002029     -0.002616
     11.57692      4.41147      1.00040        -0.004954     -0.003212      0.000242
     14.47727      5.95198      5.00050         0.004667     -0.003815     -0.008024
     14.52068      8.67088      0.99493         0.004708     -0.001295      0.000097
     17.47290     10.21944      4.96660        -0.000414      0.005212     -0.001794
      5.35328      1.98453      0.23379        -0.001233     -0.000447      0.003678
      8.29892      3.52960      4.19639         0.004039      0.001317     -0.001668
      8.30372      6.23966      0.22840        -0.005139     -0.004812     -0.004706
     11.24654      7.78249      4.19806        -0.001089     -0.002078      0.001457
     10.52974      1.98265      0.24108         0.001517     -0.003640     -0.002159
     13.47997      3.52810      4.19756         0.000134      0.000217      0.000632
     13.47313      6.24009      0.22186        -0.001466     -0.001723      0.003996
     16.42609      7.83108      4.21295         0.000870      0.013430     -0.000697
      5.70991      3.77794      3.73321         0.004320      0.009819      0.001810
      8.66581      5.37933      7.72471         0.001549     -0.002455      0.001957
      8.65765      8.08875      3.74966        -0.002731      0.005179      0.001552
     11.60919      9.63823      7.70793        -0.001448     -0.007950      0.000272
     10.89164      3.83468      3.74941         0.000917      0.004441      0.004015
     13.83536      5.38118      7.72232        -0.001499     -0.000816     -0.002873
     13.83801      8.08899      3.75347         0.003164     -0.004100     -0.005136
     16.78634      9.63498      7.71437        -0.005668     -0.000595     -0.000851
      7.25974      1.92695      2.21494         0.004477     -0.001282      0.000062
     10.20397      3.47682      6.18115        -0.002180      0.001091      0.004109
     10.21645      6.18782      2.21263        -0.001087      0.003306     -0.001085
     13.14912      7.73846      6.18727        -0.002929     -0.006213     -0.003597
[...]
      6.75291      8.14264      1.77021         0.000163     -0.001487     -0.000957
      9.70060      9.68517      5.73071        -0.001266     -0.002576      0.003073
      8.98984      3.88122      1.76323        -0.000140     -0.000823     -0.002015
     11.92195      5.43036      5.73576        -0.000704     -0.001197      0.002301
     11.93545      8.14149      1.76632        -0.000638      0.002005      0.001089
     14.87868      9.69137      5.73446        -0.001830     -0.000894     -0.003922
      4.66467      1.39633      2.98116        -0.000110      0.001488     -0.001070
      7.61773      2.94907      6.95342        -0.001570     -0.004511      0.003661
      7.65800      5.66643      2.95023         0.006586      0.003298     -0.006130
     10.56334      7.20849      6.94741        -0.003744     -0.003521      0.003437
      9.84430      1.41370      2.98089         0.005390      0.004534     -0.001720
     12.79641      2.95473      6.94805        -0.000660     -0.000526      0.000915
     12.79729      5.66453      2.98437        -0.003344     -0.003736      0.001873
     15.74592      7.20618      6.94945        -0.003021     -0.003735     -0.007426
     16.24493      5.78765      3.96699         0.015596      0.041610      0.018731
    total drift:                                0.002567      0.000193      0.000628

  FREE ENERGIE OF THE ION-ELECTRON SYSTEM (eV)
  free  energy   TOTEN  =      -597.89069842 eV

  energy  without entropy=     -597.89069842  energy(sigma->0) =     -597.89069842

 d Force = 0.2448473E-03[ 0.152E-03, 0.338E-03]  d Energy = 0.2728118E-03-0.280E-04
 d Force = 0.6101107E-02[ 0.548E-02, 0.672E-02]  d Ewald  = 0.6101536E-02-0.429E-06

 stress matrix after NEB project (eV)
      2.84322     -1.71979     -1.17290
     -1.71979      5.22737     -0.61356
     -1.17290     -0.61356      5.70185
  FORCES: max atom, RMS     0.048223    0.007684
  FORCE total and by dimension    0.069153    0.041610
  Stress total and by dimension    8.794318    5.701848
 Quasi-Newton relaxation of ions (Broydens 2nd method)
  g(Force)  = 0.231E-03   g(Stress)= 0.000E+00

 retain information from N=  3 steps
 eigenvalues of (default step * inverse Hessian matrix)
  average eigenvalue of G=   4.9152
 eigenvalue spectrum of G is  6.5026  6.5026  1.7406

 reached required accuracy - stopping structural energy minimisation

volume of typ            1:    52.8 %

[...]

volume of typ            3:     0.0 %

total charge

# of ion       s       p       d       tot
    1        0.646   1.100   0.745   2.490
    2        0.648   1.105   0.751   2.503
    3        0.648   1.105   0.751   2.505
    4        0.638   1.081   0.728   2.448
    5        0.651   1.112   0.757   2.520
    6        0.646   1.100   0.745   2.491
    7        0.646   1.100   0.745   2.490
    8        0.648   1.106   0.752   2.506
    9        0.647   1.102   0.747   2.495
   10        0.646   1.099   0.743   2.488
   11        0.646   1.099   0.744   2.488
   12        0.647   1.102   0.747   2.495
   13        0.647   1.102   0.747   2.495
   14        0.647   1.103   0.749   2.499
   15        0.647   1.102   0.747   2.495
   16        0.646   1.099   0.743   2.488
   17        0.646   1.099   0.744   2.489
   18        0.647   1.102   0.747   2.495
   19        0.647   1.102   0.747   2.495
   20        0.651   1.112   0.758   2.521
   21        0.647   1.101   0.746   2.495
   22        0.646   1.099   0.744   2.489
   23        0.646   1.099   0.744   2.489
   24        0.647   1.102   0.747   2.495
   25        0.648   1.105   0.751   2.505
   26        0.646   1.100   0.745   2.491
   27        0.646   1.100   0.745   2.491
   28        0.647   1.104   0.749   2.500
   29        0.638   1.080   0.727   2.445
   30        0.648   1.105   0.751   2.504
   31        0.646   1.100   0.745   2.490
   32        0.648   1.106   0.752   2.506
   33        1.406   3.392   0.005   4.803
   34        1.406   3.392   0.005   4.803
   35        1.406   3.393   0.005   4.804
   36        1.406   3.394   0.005   4.805
   37        1.406   3.393   0.005   4.804
   38        1.410   3.381   0.006   4.797
   39        1.406   3.394   0.005   4.805
   40        1.406   3.394   0.005   4.805
   41        1.406   3.393   0.005   4.804
   42        1.406   3.391   0.005   4.802
   43        1.406   3.394   0.005   4.805
   44        1.406   3.394   0.005   4.805
   45        1.406   3.394   0.005   4.805
   46        1.406   3.392   0.005   4.803
   47        1.406   3.394   0.005   4.805
   48        1.410   3.381   0.006   4.797
   49        1.411   3.380   0.006   4.796
   50        1.406   3.394   0.005   4.805
   51        1.406   3.392   0.005   4.803
   52        1.406   3.394   0.005   4.805
   53        1.406   3.393   0.005   4.805
   54        1.406   3.394   0.005   4.806
   55        1.406   3.392   0.005   4.803
   56        1.406   3.393   0.005   4.804
   57        1.406   3.394   0.005   4.806
   58        1.406   3.393   0.005   4.804
   59        1.406   3.394   0.005   4.805
   60        1.406   3.394   0.005   4.805
[...]
   67        1.406   3.392   0.005   4.803
   68        1.406   3.393   0.005   4.805
   69        1.406   3.394   0.005   4.805
   70        1.406   3.394   0.005   4.805
   71        1.406   3.393   0.005   4.804
   72        1.406   3.394   0.005   4.805
   73        1.406   3.394   0.005   4.805
   74        1.406   3.394   0.005   4.805
   75        1.410   3.381   0.006   4.797
   76        1.406   3.393   0.005   4.804
   77        1.406   3.394   0.005   4.805
   78        1.406   3.393   0.005   4.804
   79        1.406   3.392   0.005   4.803
   80        1.406   3.392   0.005   4.802
   81        0.179   0.001   0.000   0.180
tot          88.38  198.02   24.13  310.53

magnetization (x)

# of ion       s       p       d       tot
    1       -0.000  -0.000  -0.000  -0.000
    2        0.001   0.001   0.001   0.004
    3        0.001   0.001   0.001   0.004
    4       -0.002   0.002   0.015   0.015
    5        0.002   0.000   0.000   0.003
    6       -0.000  -0.000  -0.000  -0.000
    7       -0.000  -0.000  -0.000  -0.000
    8        0.001   0.001   0.001   0.004
    9        0.000   0.000   0.000   0.000
   10       -0.000  -0.001   0.000  -0.001
   11       -0.000  -0.000   0.000  -0.000
   12        0.000  -0.000   0.000   0.000
   13        0.000  -0.000   0.000   0.000
   14        0.000   0.000   0.000   0.000
   15        0.000   0.000   0.000   0.000
   16       -0.000  -0.000   0.000  -0.000
   17       -0.000  -0.000   0.000  -0.001
   18        0.000   0.000   0.000   0.000
   19        0.000   0.000   0.000   0.000
   20        0.002   0.000   0.000   0.003
   21        0.000   0.000   0.000   0.000
   22       -0.000  -0.000   0.000  -0.000
   23       -0.000  -0.000   0.000  -0.000
   24        0.000   0.000   0.000   0.000
   25        0.001   0.001   0.001   0.004
   26       -0.000  -0.000  -0.000  -0.000
   27       -0.000  -0.000  -0.000  -0.000
   28        0.000   0.000   0.000   0.000
   29       -0.002   0.003   0.016   0.017
   30        0.001   0.001   0.001   0.004
   31       -0.000  -0.000  -0.000  -0.000
   32        0.001   0.002   0.001   0.004
   33       -0.000  -0.000  -0.000  -0.000
   34        0.000  -0.000  -0.000  -0.000
   35        0.000   0.000   0.000   0.000
   36        0.000   0.001   0.000   0.001
   37        0.000  -0.000   0.000   0.000
   38        0.005   0.041   0.000   0.046
   39        0.000  -0.000   0.000   0.000
   40        0.000   0.001   0.000   0.002
   41        0.000   0.000   0.000   0.000
   42       -0.000  -0.000  -0.000  -0.000
   43        0.000  -0.000   0.000   0.000
   44        0.000  -0.000   0.000   0.000
   45        0.000   0.000   0.000   0.001
   46        0.000  -0.000  -0.000  -0.000
   47        0.000   0.001   0.000   0.002
   48        0.004   0.038   0.000   0.043
   49        0.005   0.044   0.001   0.049
   50        0.000   0.001   0.000   0.002
   51        0.000  -0.000  -0.000  -0.000
   52        0.000   0.000   0.000   0.001
   53        0.000  -0.000   0.000   0.000
   54        0.000  -0.000   0.000   0.000
   55       -0.000  -0.000  -0.000  -0.000
   56        0.000   0.000   0.000   0.000
   57        0.000  -0.000   0.000   0.000
   58        0.000   0.000   0.000   0.000
   59        0.000   0.001   0.000   0.002
   60        0.000   0.000   0.000   0.001
[...]
   67       -0.000  -0.000  -0.000  -0.000
   68        0.000  -0.000   0.000   0.000
   69        0.000   0.000   0.000   0.001
   70        0.000   0.001   0.000   0.002
   71        0.000   0.000   0.000   0.000
   72        0.000  -0.000   0.000   0.000
   73        0.000   0.001   0.000   0.002
   74        0.000  -0.000   0.000   0.000
   75        0.005   0.041   0.000   0.046
   76        0.000  -0.000   0.000   0.000
   77        0.000   0.000   0.000   0.001
   78        0.000   0.000   0.000   0.000
   79        0.000  -0.000  -0.000  -0.000
   80       -0.000  -0.000  -0.000  -0.000
   81        0.132   0.000   0.000   0.132
tot           0.17    0.27    0.04    0.48